17 17
4 5
8 7
1 7
3 10
6 3
5 5
8 4
10 5
4 10
2 1
3 3
1 7
2 5
4 4
6 3
2 1
5 7
11 13 79
13 18 96
15 19 53
16 19 83
19 13 80
12 11 59
12 20 74
16 16 58
17 18 100
17 19 87
10 19 98
17 17 52
16 14 80
13 10 70
11 15 93
17 17 98
16 17 53
